27
2
49, 5, 90, 30, 16, 65, 16, 13, 67, 98, 96, 44, 56, 84, 1, 92, 79, 55, 82, 16, 78, 26, 37
100, 34, 72, 35, 16, 33, 32, 18, 19, 56, 94, 98, 7, 11, 93, 44, 66, 2, 53, 28, 11, 53, 42
1, 1, 2, 1, 1, 1, 2, 2, 2, 2, 2, 2, 1, 1, 2, 1, 2, 2, 2, 2, 1, 2, 1